set BUS := 1 2 3 4 5;

param  dem:= 
	   1 0
	   2 20
	   3 45
	   4 40
	   5 60 ;
	
param:  cc bb aa pmin pmax:= 
	1   1  1  1  0    99999
	2   1  1  1  40   40
	3   1  1  1  0    0
	4   1  1  1  0    0
	5   1  1  1  0    0;

set BRANCH := (1,2) (1,3)
              (2,3) (2,4) (2,5)
              (3,4)
              (4,5);
              
set LOOPS := 1 2 3 4;          

set LOOP := (1,1,2) (1,1,3) (1,2,3)
			(2,2,3) (2,3,4) (2,2,4)
			(3,2,4) (3,4,5) (3,2,5)
			(4,1,3) (4,3,4) (4,4,5) (4,2,5) (4,1,2);
			
param: sense :=
1 1 2  -1
1 1 3  +1
1 2 3  -1
2 2 3  +1
2 3 4  +1
2 2 4  -1
3 2 4  +1
3 4 5  +1
3 2 5  -1
4 1 3  +1
4 3 4  +1
4 4 5  +1
4 2 5  -1
4 1 2  -1 ;

param: r     x     shunt  fmin  fmax :=
1 2    0.02  0.06  0.030  0     99999
1 3    0.08  0.24  0.025  0     99999
2 3    0.06  0.18  0.020  0     99999
2 4    0.06  0.18  0.020  0     99999
2 5    0.04  0.12  0.015  0     99999
3 4    0.01  0.03  0.010  0     99999
4 5    0.08  0.24  0.025  0     99999;

param loss:= 
			1	0
			2	0
			3	0
			4	0
			5	0 ;